Tried aggregator 2 times.
MIP Presolve eliminated 7 rows and 2 columns.
MIP Presolve modified 60 coefficients.
Aggregator did 60 substitutions.
Reduced MIP has 347 rows, 318 columns, and 881 nonzeros.
Reduced MIP has 185 binaries, 13 generals, 0 SOSs, and 80 indicators.
Presolve time = 0.00 sec. (0.76 ticks)
Found incumbent of value 23.000000 after 0.01 sec. (1.33 ticks)
Probing fixed 18 vars, tightened 62 bounds.
Probing time = 0.00 sec. (1.37 ticks)
Tried aggregator 2 times.
MIP Presolve eliminated 26 rows and 26 columns.
MIP Presolve modified 216 coefficients.
Aggregator did 102 substitutions.
Reduced MIP has 219 rows, 190 columns, and 653 nonzeros.
Reduced MIP has 137 binaries, 39 generals, 0 SOSs, and 68 indicators.
Presolve time = 0.00 sec. (1.11 ticks)
Probing time = 0.00 sec. (0.37 ticks)
Tried aggregator 1 time.
Reduced MIP has 219 rows, 190 columns, and 653 nonzeros.
Reduced MIP has 137 binaries, 39 generals, 0 SOSs, and 68 indicators.
Presolve time = 0.00 sec. (0.31 ticks)
Probing time = 0.00 sec. (0.37 ticks)
Clique table members: 30.
MIP emphasis: balance optimality and feasibility.
MIP search method: dynamic search.
Parallel mode: deterministic, using up to 4 threads.
Root relaxation solution time = 0.00 sec. (0.60 ticks)

        Nodes                                         Cuts/
   Node  Left     Objective  IInf  Best Integer    Best Bound    ItCnt     Gap

*     0+    0                           23.0000        4.0000       85   82.61%
      0     0        4.0000    82       23.0000        4.0000       85   82.61%
      0     0        4.0000    30       23.0000       Cuts: 5       93   82.61%
      0     0        4.0000    32       23.0000      Cuts: 30      126   82.61%
*     0+    0                            5.0000        4.0000      126   20.00%
      0     0        4.0000    18        5.0000       Cuts: 2      132   20.00%
      0     0        4.0000    36        5.0000      Cuts: 27      173   20.00%
*     0+    0                            4.0000        4.0000      174    0.00%
      0     0        cutoff              4.0000        4.0000      174    0.00%
Elapsed time = 0.07 sec. (20.07 ticks, tree = 0.00 MB, solutions = 3)

Cover cuts applied:  4
Implied bound cuts applied:  4
Flow cuts applied:  3
Zero-half cuts applied:  1
Gomory fractional cuts applied:  1

Root node processing (before b&c):
  Real time             =    0.07 sec. (20.09 ticks)
Parallel b&c, 4 threads:
  Real time             =    0.00 sec. (0.00 ticks)
  Sync time (average)   =    0.00 sec.
  Wait time (average)   =    0.00 sec.
                          ------------
Total (root+branch&cut) =    0.07 sec. (20.09 ticks)
